webassembly/ejemplos_results/9/folder9_json_93.txt
value = 9;
fgas = [1, 1, 1, 2, 1, 1, 1, 1, 1];
fsize = [1, 1, 1, 1, 1, 1, 1, 1, 1];
states = 
[|   in_0, in_1, in_2, in_3, in_4,  '.', '.', '.', '.', '.'
 | 's(3)', in_4, in_1, in_2, in_3, in_4, '.', '.', '.', '.'
 |   in_4, in_1, in_2, in_3, in_4,  '.', '.', '.', '.', '.'
 | 's(2)', in_0, in_2, in_3, in_4,  '.', '.', '.', '.', '.'
 |   in_0, in_2, in_3, in_4,  '.',  '.', '.', '.', '.', '.'
 | 's(0)', in_2, in_3, in_4,  '.',  '.', '.', '.', '.', '.'
 | 's(3)', in_1, in_2, in_3, in_4,  '.', '.', '.', '.', '.'
 |   in_1, in_2, in_3, in_4,  '.',  '.', '.', '.', '.', '.'
 | 's(1)', in_3, in_4,  '.',  '.',  '.', '.', '.', '.', '.'
 | 's(2)',  '.',  '.',  '.',  '.',  '.', '.', '.', '.', '.'
 |];
register_states = 
[| local_0, local_1, '.', '.', '.', '.', '.'
 | local_0, local_1, '.', '.', '.', '.', '.'
 |  's(3)', local_1, '.', '.', '.', '.', '.'
 |  's(3)', local_1, '.', '.', '.', '.', '.'
 |  's(3)', local_1, '.', '.', '.', '.', '.'
 |  's(3)', local_1, '.', '.', '.', '.', '.'
 |  's(3)', local_1, '.', '.', '.', '.', '.'
 |  's(3)',  's(3)', '.', '.', '.', '.', '.'
 |  's(3)',  's(3)', '.', '.', '.', '.', '.'
 |  's(3)',  's(3)', '.', '.', '.', '.', '.'
 |];
program = [O('i32.const_0'), S(SET1), O('i32.load_8'), POP, O('i32.load8_u_1'), O('i32.const_0'), S(SET2), O('i32.sub_0'), O('i32.store_4')];
% time elapsed: 0.11 s
----------
value = 8;
fgas = [1, 1, 1, 1, 1, 1, 1, 1, 0];
fsize = [1, 1, 1, 1, 1, 1, 1, 1, 1];
states = 
[|   in_0,   in_1, in_2, in_3, in_4,  '.', '.', '.', '.', '.'
 | 's(0)',   in_1, in_2, in_3, in_4,  '.', '.', '.', '.', '.'
 | 's(3)', 's(3)', in_1, in_2, in_3, in_4, '.', '.', '.', '.'
 | 's(3)', 's(3)', in_1, in_2, in_3, in_4, '.', '.', '.', '.'
 | 's(3)',   in_1, in_2, in_3, in_4,  '.', '.', '.', '.', '.'
 |   in_1,   in_2, in_3, in_4,  '.',  '.', '.', '.', '.', '.'
 | 's(1)',   in_3, in_4,  '.',  '.',  '.', '.', '.', '.', '.'
 |   in_4,    '.',  '.',  '.',  '.',  '.', '.', '.', '.', '.'
 | 's(2)',    '.',  '.',  '.',  '.',  '.', '.', '.', '.', '.'
 | 's(2)',    '.',  '.',  '.',  '.',  '.', '.', '.', '.', '.'
 |];
register_states = 
[| local_0, local_1, '.', '.', '.', '.', '.'
 | local_0, local_1, '.', '.', '.', '.', '.'
 | local_0, local_1, '.', '.', '.', '.', '.'
 |  's(3)', local_1, '.', '.', '.', '.', '.'
 |  's(3)',  's(3)', '.', '.', '.', '.', '.'
 |  's(3)',  's(3)', '.', '.', '.', '.', '.'
 |  's(3)',  's(3)', '.', '.', '.', '.', '.'
 |  's(3)',  's(3)', '.', '.', '.', '.', '.'
 |  's(3)',  's(3)', '.', '.', '.', '.', '.'
 |  's(3)',  's(3)', '.', '.', '.', '.', '.'
 |];
program = [O('i32.load8_u_1'), O('i32.const_0'), TEE(TEE1), S(SET2), S(SET2), O('i32.sub_0'), O('i32.store_4'), O('i32.load_8'), NOP];
% time elapsed: 0.11 s
----------
value = 7;
fgas = [1, 1, 1, 1, 1, 1, 1, 0, 0];
fsize = [1, 1, 1, 1, 1, 1, 1, 1, 1];
states = 
[|   in_0, in_1, in_2, in_3, in_4,  '.', '.', '.', '.', '.'
 | 's(0)', in_2, in_2, in_3, in_4,  '.', '.', '.', '.', '.'
 | 's(3)', in_1, in_2, in_2, in_3, in_4, '.', '.', '.', '.'
 |   in_1, in_2, in_2, in_3, in_4,  '.', '.', '.', '.', '.'
 | 's(1)', in_3, in_3, in_4,  '.',  '.', '.', '.', '.', '.'
 | 's(3)', in_4,  '.',  '.',  '.',  '.', '.', '.', '.', '.'
 |   in_4,  '.',  '.',  '.',  '.',  '.', '.', '.', '.', '.'
 | 's(2)',  '.',  '.',  '.',  '.',  '.', '.', '.', '.', '.'
 | 's(2)',  '.',  '.',  '.',  '.',  '.', '.', '.', '.', '.'
 | 's(2)',  '.',  '.',  '.',  '.',  '.', '.', '.', '.', '.'
 |];
register_states = 
[| local_0, local_1, '.', '.', '.', '.', '.'
 | local_0, local_1, '.', '.', '.', '.', '.'
 | local_0, local_1, '.', '.', '.', '.', '.'
 | local_0,  's(3)', '.', '.', '.', '.', '.'
 | local_0,  's(3)', '.', '.', '.', '.', '.'
 | local_0,  's(3)', '.', '.', '.', '.', '.'
 |  's(3)',  's(3)', '.', '.', '.', '.', '.'
 |  's(3)',  's(3)', '.', '.', '.', '.', '.'
 |  's(3)',  's(3)', '.', '.', '.', '.', '.'
 |  's(3)',  's(3)', '.', '.', '.', '.', '.'
 |];
program = [O('i32.load8_u_1'), O('i32.const_0'), S(SET2), O('i32.sub_0'), O('i32.store_4'), S(SET1), O('i32.load_8'), NOP, NOP];
% time elapsed: 0.12 s
----------
==========
% time elapsed: 0.12 s
% [value > 6]
